outputs/case_148.model.txt
funds_used_in_securities = True
insurance_related_business_compliant = True
real_estate_total_investment = 300000000
funds_used_in_foreign_investment = True
funds_used_in_other_approved_usage = True
social_housing_only_for_rent = False
deposit_per_financial_institution = 0
funds_used_in_insurance_related_business = True
owner_equity_total = 1000000000
self_use_real_estate_investment = False
funds_used_in_derivative_trading = True
real_estate_valuation_by_legal_institution = True
investment_insurance_bookkeeping_exemption = False
derivative_trading_compliant = True
real_estate_investment_internal_procedure_compliant = True
full_discretionary_investment_licensed = True
funds_used_in_real_estate = True
investment_insurance_bookkeeping_compliant = True
total_funds = 1000000000
funds_used_in_approved_projects = True
deposit_limit_approved_by_authority = False
policyholder_full_discretionary_investment = False
funds_used_in_loans = True
violation_138_2_reserve_flag = False
real_estate_acquisition_valuation_ok = True
violation_146_1_investment = False
loan_unsecured_or_better_condition = False
violation_146_5_investment_approval_flag = False
real_estate_investment_social_housing_exemption = False
violation_143_5_or_measures = False
violation_146_3_flag = False
violation_143 = False
real_estate_investment_internal_procedure_ok = True
loan_unsecured_or_better_condition_flag = False
real_estate_investment_limit_ok = True
violation_138_scope = False
violation_146_5_investment_approval = False
violation_146_7_loan_limit_resolution = False
violation_146_3 = False
derivative_trading_regulation_compliance = True
violation_146_9_flag = False
deposit_limit_per_financial_institution_ok = True
violation_143_flag = False
insurance_related_business_definition_ok = True
violation_143_5_or_measures_flag = False
violation_146_book_investment = False
violation_146_7_loan_limit_resolution_flag = False
violation_146_4 = False
investment_insurance_business_bookkeeping_ok = True
full_discretionary_investment_compliance = True
investment_insurance_business_bookkeeping_exemption_ok = False
funds_usage_limited_to_specified = True
loan_guarantee_board_approval_flag = False
violation_146_6_reporting_flag = False
violation_138_scope_flag = False
violation_146_2_real_estate = False
penalty = False
loan_guarantee_board_approval = False
violation_146_6_reporting = False
violation_146_4_flag = False
violation_138_2_reserve = 0
violation_146_book_investment_flag = False
violation_146_2_real_estate_flag = False
violation_146_1_investment_flag = False
violation_146_9 = False